qbf_easy_train/easy_953_SAT.qdimacs
p cnf 25 65
a 18 12 5 0
e 1 2 3 4 6 7 8 9 10 11 13 14 15 16 17 19 20 21 22 23 24 25 0
1 -2 -3 0
-1 2 -3 0
1 2 3 0
-1 -2 3 0
6 4 0
6 5 0
-4 -5 -6 0
-2 4 -7 0
2 -4 -7 0
-2 -4 7 0
2 4 7 0
8 6 0
8 -7 0
-6 7 -8 0
9 3 0
9 -8 0
-3 8 -9 0
4 10 -11 0
-4 -10 -11 0
4 -10 11 0
-4 10 11 0
13 -11 0
13 12 0
11 -12 -13 0
-4 -12 -15 0
4 12 -15 0
-4 12 15 0
4 -12 15 0
16 -15 0
16 -1 0
15 1 -16 0
-17 5 0
-17 16 0
-5 -16 17 0
14 -17 -18 0
-14 17 -18 0
14 17 18 0
-14 -17 18 0
-13 18 -19 0
13 -18 -19 0
-13 -18 19 0
13 18 19 0
21 11 0
21 -20 0
-11 20 -21 0
-22 -11 0
-22 5 0
11 -5 22 0
-23 21 0
-23 -22 0
-21 22 23 0
24 19 0
24 -23 0
-19 23 -24 0
-9 24 -25 0
9 -24 -25 0
-9 -24 25 0
9 24 25 0
23 -17 6 -1 3 0
-12 -2 -6 19 0
23 -5 24 -25 -22 16 -21 0
2 -10 -8 1 0
-5 21 17 -24 -18 -22 0
9 -22 15 0
25 0
