sat_easy_train/easy_953_SAT.dimacs
p cnf 117 387
1 2 -3 0
-1 -2 -3 0
1 -2 3 0
-1 2 3 0
7 -5 0
7 -6 0
5 6 -7 0
-8 7 0
-8 1 0
-7 -1 8 0
4 8 -9 0
-4 -8 -9 0
4 -8 9 0
-4 8 9 0
-11 -9 0
-11 10 0
9 -10 11 0
-13 -9 0
-13 12 0
9 -12 13 0
-15 5 0
-15 14 0
-5 -14 15 0
-16 13 0
-16 -15 0
-13 15 16 0
17 -11 0
17 16 0
11 -16 -17 0
18 -17 0
18 2 0
17 -2 -18 0
19 20 -21 0
-19 -20 -21 0
19 -20 21 0
-19 20 21 0
-22 18 0
-22 21 0
-18 -21 22 0
-24 22 0
-24 23 0
-22 -23 24 0
25 3 0
25 24 0
-3 -24 -25 0
-26 9 -27 0
26 -9 -27 0
-26 -9 27 0
26 9 27 0
-28 16 0
-28 -27 0
-16 27 28 0
-29 15 0
-29 -8 0
-15 8 29 0
21 -29 -30 0
-21 29 -30 0
21 29 30 0
-21 -29 30 0
30 -3 -31 0
-30 3 -31 0
30 3 31 0
-30 -3 31 0
-33 -32 0
-33 -3 0
32 3 33 0
34 31 0
34 33 0
-31 -33 -34 0
-35 28 0
-35 -34 0
-28 34 35 0
5 26 -36 0
-5 -26 -36 0
5 -26 36 0
-5 26 36 0
-36 -2 -37 0
36 2 -37 0
-36 2 37 0
36 -2 37 0
38 -21 0
38 37 0
21 -37 -38 0
-5 -38 -39 0
5 38 -39 0
-5 38 39 0
5 -38 39 0
41 39 0
41 40 0
-39 -40 -41 0
-43 22 0
-43 -42 0
-22 42 43 0
44 43 0
44 -23 0
-43 23 -44 0
-44 29 -45 0
44 -29 -45 0
-44 -29 45 0
44 29 45 0
46 41 0
46 -45 0
-41 45 -46 0
6 -4 -47 0
-6 4 -47 0
6 4 47 0
-6 -4 47 0
48 -47 0
48 29 0
47 -29 -48 0
-11 48 -49 0
11 -48 -49 0
-11 -48 49 0
11 48 49 0
50 -7 0
50 49 0
7 -49 -50 0
51 -4 0
51 -5 0
4 5 -51 0
-26 -51 -52 0
26 51 -52 0
-26 51 52 0
26 -51 52 0
-50 52 -53 0
50 -52 -53 0
-50 -52 53 0
50 52 53 0
-54 -7 0
-54 -7 0
7 54 0
55 -54 0
55 -6 0
54 6 -55 0
-21 -55 -56 0
21 55 -56 0
-21 55 56 0
21 -55 56 0
57 12 0
57 -48 0
-12 48 -57 0
57 -16 -58 0
-57 16 -58 0
57 16 58 0
-57 -16 58 0
-48 58 -59 0
48 -58 -59 0
-48 -58 59 0
48 58 59 0
60 -47 0
60 -9 0
47 9 -60 0
-61 60 0
-61 60 0
-60 61 0
61 -42 -62 0
-61 42 -62 0
61 42 62 0
-61 -42 62 0
-63 -59 0
-63 62 0
59 -62 63 0
-64 -56 0
-64 63 0
56 -63 64 0
-65 32 0
-65 32 0
-32 65 0
66 47 0
66 60 0
-47 -60 -66 0
-67 21 0
-67 -2 0
-21 2 67 0
68 67 0
68 4 0
-67 -4 -68 0
-69 43 0
-69 68 0
-43 -68 69 0
70 -66 0
70 69 0
66 -69 -70 0
65 -70 -71 0
-65 70 -71 0
65 70 71 0
-65 -70 71 0
-64 71 -72 0
64 -71 -72 0
-64 -71 72 0
64 71 72 0
-73 -53 0
-73 -72 0
53 72 73 0
-74 -49 0
-74 1 0
49 -1 74 0
1 -5 -75 0
-1 5 -75 0
1 5 75 0
-1 -5 75 0
-32 75 -76 0
32 -75 -76 0
-32 -75 76 0
32 75 76 0
74 -76 -77 0
-74 76 -77 0
74 76 77 0
-74 -76 77 0
78 73 0
78 77 0
-73 -77 -78 0
-79 46 0
-79 -78 0
-46 78 79 0
35 -79 -80 0
-35 79 -80 0
35 79 80 0
-35 -79 80 0
39 -11 -81 0
-39 11 -81 0
39 11 81 0
-39 -11 81 0
-82 -1 0
-82 51 0
1 -51 82 0
83 81 0
83 -82 0
-81 82 -83 0
84 -48 0
84 9 0
48 -9 -84 0
-86 14 0
-86 -9 0
-14 9 86 0
87 -85 0
87 -86 0
85 86 -87 0
84 87 -88 0
-84 -87 -88 0
84 -87 88 0
-84 87 88 0
-89 10 0
-89 -2 0
-10 2 89 0
89 2 -90 0
-89 -2 -90 0
89 -2 90 0
-89 2 90 0
91 88 0
91 90 0
-88 -90 -91 0
36 75 -92 0
-36 -75 -92 0
36 -75 92 0
-36 75 92 0
93 92 0
93 21 0
-92 -21 -93 0
94 91 0
94 -93 0
-91 93 -94 0
-16 57 -95 0
16 -57 -95 0
-16 -57 95 0
16 57 95 0
-96 -54 0
-96 -13 0
54 13 96 0
-95 -96 -97 0
95 96 -97 0
-95 96 97 0
95 -96 97 0
-98 -39 0
-98 92 0
39 -92 98 0
44 98 -99 0
-44 -98 -99 0
44 -98 99 0
-44 98 99 0
-100 -99 0
-100 8 0
99 -8 100 0
101 5 0
101 8 0
-5 -8 -101 0
-102 -49 0
-102 16 0
49 -16 102 0
103 85 0
103 -32 0
-85 32 -103 0
-104 102 0
-104 -103 0
-102 103 104 0
-105 37 0
-105 -39 0
-37 39 105 0
-106 104 0
-106 105 0
-104 -105 106 0
101 -106 -107 0
-101 106 -107 0
101 106 107 0
-101 -106 107 0
108 -100 0
108 -107 0
100 107 -108 0
-109 -29 0
-109 12 0
29 -12 109 0
-110 108 0
-110 -109 0
-108 109 110 0
-111 -97 0
-111 110 0
97 -110 111 0
112 -9 0
112 -12 0
9 12 -112 0
113 -111 0
113 112 0
111 -112 -113 0
114 -94 0
114 113 0
94 -113 -114 0
-115 83 0
-115 114 0
-83 -114 115 0
116 80 0
116 -115 0
-80 115 -116 0
-25 -116 -117 0
25 116 -117 0
-25 116 117 0
25 -116 117 0
-93 20 117 -9 0
-2 -24 45 -93 0
-70 -7 -68 47 77 0
-104 96 -95 49 -97 108 0
35 43 51 112 0
103 -3 -91 0
-69 -111 4 -30 -102 0
-51 -47 117 -91 -66 0
55 -26 -108 0
-27 -11 -7 -52 87 0
-3 -75 -28 105 -50 0
56 -81 104 39 59 0
-22 -40 0
86 -101 -60 115 -24 -17 0
61 -106 -65 -114 -34 -84 0
-60 -36 -23 -66 103 0
75 -117 46 48 0
-6 113 51 -58 14 0
-71 73 -58 -31 -24 -116 0
33 -12 -3 0
83 112 -11 22 0
115 -49 -86 40 -111 106 0
-83 -97 94 0
67 -50 106 -56 74 0
-16 63 -70 -96 -5 86 0
-74 -99 -46 56 113 0
-63 3 103 0
-97 52 -48 35 -74 0
-27 -57 -31 38 93 103 0
-70 91 -90 94 44 0
100 101 79 26 66 10 0
-63 10 6 -59 0
41 -12 0
22 -2 93 -117 15 0
59 -104 -6 -60 -63 0
-24 -1 55 -51 -63 0
5 -87 -10 0
-21 -42 81 27 -3 0
-116 18 45 97 0
10 35 97 81 0
84 -104 0
95 -70 -23 0
98 -48 0
31 18 0
89 -111 58 28 -51 -43 0
-23 -5 93 -71 -87 0
90 -88 22 0
78 5 -65 73 0
-88 -45 33 0
99 19 0
117 0
